(set-logic ALL)
(set-option :produce-models true)
(declare-sort BoundSet 0)
(declare-sort UnboundSet 0)
(set-option :finite-model-find true)
(declare-fun IsScaling (BoundSet BoundSet) Bool)
(declare-fun IsRockClimbing (BoundSet BoundSet) Bool)
(assert (not (=> (exists ((a BoundSet)) (exists ((b BoundSet)) (IsScaling a b))) (exists ((c BoundSet)) (exists ((a BoundSet)) (IsRockClimbing a c))))))
(check-sat)
(get-model)